52
49 15 130
15 43 132
43 33 80
33 36 76
36 47 60
47 23 16
23 5 57
5 14 40
14 4 25
4 37 51
37 39 35
39 38 43
38 35 43
35 34 15
34 48 85
48 31 50
31 21 97
21 30 104
30 17 80
17 2 135
2 44 220
44 18 75
18 40 92
40 7 64
7 8 183
8 9 83
9 32 501
32 42 365
42 3 245
3 50 397
50 10 285
10 26 417
26 12 185
12 51 279
51 13 319
13 46 365
46 25 186
25 27 159
27 11 182
11 24 245
24 45 173
45 28 349
28 29 260
29 52 480
52 1 187
1 6 45
6 41 76
41 16 408
16 20 253
20 22 187
22 19 94
19 49 35

